p cnf 645 1680
w 1 1
w 2 0.880797
w 3 0.880797
w 4 1
w 5 0.880797
w 6 0.880797
w 7 1
w 8 0.880797
w 9 0.880797
w 10 1
w 11 0.880797
w 12 0.880797
w 13 1
w 14 0.880797
w 15 0.880797
w 16 1
w 17 0.880797
w 18 0.880797
w 19 1
w 20 0.880797
w 21 0.880797
w 22 1
w 23 0.880797
w 24 0.880797
w 25 1
w 26 0.880797
w 27 0.880797
w 28 1
w 29 0.880797
w 30 0.880797
w 31 1
w 32 0.880797
w 33 0.880797
w 34 1
w 35 0.880797
w 36 0.880797
w 37 1
w 38 0.880797
w 39 0.880797
w 40 1
w 41 0.880797
w 42 0.880797
w 43 1
w 44 0.880797
w 45 1
w 46 0.880797
w 47 0.880797
w 48 1
w 49 0.880797
w 50 0.880797
w 51 1
w 52 0.880797
w 53 0.880797
w 54 1
w 55 0.880797
w 56 0.880797
w 57 1
w 58 0.880797
w 59 0.880797
w 60 1
w 61 0.880797
w 62 0.880797
w 63 1
w 64 0.880797
w 65 0.880797
w 66 1
w 67 0.880797
w 68 0.880797
w 69 1
w 70 0.880797
w 71 0.880797
w 72 1
w 73 0.880797
w 74 0.880797
w 75 1
w 76 0.880797
w 77 0.880797
w 78 1
w 79 0.880797
w 80 0.880797
w 81 1
w 82 0.880797
w 83 0.880797
w 84 1
w 85 0.880797
w 86 0.880797
w 87 1
w 88 0.880797
w 89 1
w 90 0.880797
w 91 0.880797
w 92 1
w 93 0.880797
w 94 0.880797
w 95 1
w 96 0.880797
w 97 0.880797
w 98 1
w 99 0.880797
w 100 0.880797
w 101 1
w 102 0.880797
w 103 0.880797
w 104 1
w 105 0.880797
w 106 0.880797
w 107 1
w 108 0.880797
w 109 0.880797
w 110 1
w 111 0.880797
w 112 0.880797
w 113 1
w 114 0.880797
w 115 0.880797
w 116 1
w 117 0.880797
w 118 0.880797
w 119 1
w 120 0.880797
w 121 0.880797
w 122 1
w 123 0.880797
w 124 0.880797
w 125 1
w 126 0.880797
w 127 0.880797
w 128 1
w 129 0.880797
w 130 0.880797
w 131 1
w 132 0.880797
w 133 1
w 134 0.880797
w 135 0.880797
w 136 1
w 137 0.880797
w 138 0.880797
w 139 1
w 140 0.880797
w 141 0.880797
w 142 1
w 143 0.880797
w 144 0.880797
w 145 1
w 146 0.880797
w 147 0.880797
w 148 1
w 149 0.880797
w 150 0.880797
w 151 1
w 152 0.880797
w 153 0.880797
w 154 1
w 155 0.880797
w 156 0.880797
w 157 1
w 158 0.880797
w 159 0.880797
w 160 1
w 161 0.880797
w 162 0.880797
w 163 1
w 164 0.880797
w 165 0.880797
w 166 1
w 167 0.880797
w 168 0.880797
w 169 1
w 170 0.880797
w 171 0.880797
w 172 1
w 173 0.880797
w 174 0.880797
w 175 1
w 176 0.880797
w 177 1
w 178 0.880797
w 179 0.880797
w 180 1
w 181 0.880797
w 182 0.880797
w 183 1
w 184 0.880797
w 185 0.880797
w 186 1
w 187 0.880797
w 188 0.880797
w 189 1
w 190 0.880797
w 191 0.880797
w 192 1
w 193 0.880797
w 194 0.880797
w 195 1
w 196 0.880797
w 197 0.880797
w 198 1
w 199 0.880797
w 200 0.880797
w 201 1
w 202 0.880797
w 203 0.880797
w 204 1
w 205 0.880797
w 206 0.880797
w 207 1
w 208 0.880797
w 209 0.880797
w 210 1
w 211 0.880797
w 212 0.880797
w 213 1
w 214 0.880797
w 215 0.880797
w 216 1
w 217 0.880797
w 218 0.880797
w 219 1
w 220 0.880797
w 221 1
w 222 0.880797
w 223 0.880797
w 224 1
w 225 0.880797
w 226 0.880797
w 227 1
w 228 0.880797
w 229 0.880797
w 230 1
w 231 0.880797
w 232 0.880797
w 233 1
w 234 0.880797
w 235 0.880797
w 236 1
w 237 0.880797
w 238 0.880797
w 239 1
w 240 0.880797
w 241 0.880797
w 242 1
w 243 0.880797
w 244 0.880797
w 245 1
w 246 0.880797
w 247 0.880797
w 248 1
w 249 0.880797
w 250 0.880797
w 251 1
w 252 0.880797
w 253 0.880797
w 254 1
w 255 0.880797
w 256 0.880797
w 257 1
w 258 0.880797
w 259 0.880797
w 260 1
w 261 0.880797
w 262 0.880797
w 263 1
w 264 0.880797
w 265 1
w 266 0.880797
w 267 0.880797
w 268 1
w 269 0.880797
w 270 0.880797
w 271 1
w 272 0.880797
w 273 0.880797
w 274 1
w 275 0.880797
w 276 0.880797
w 277 1
w 278 0.880797
w 279 0.880797
w 280 1
w 281 0.880797
w 282 0.880797
w 283 1
w 284 0.880797
w 285 0.880797
w 286 1
w 287 0.880797
w 288 0.880797
w 289 1
w 290 0.880797
w 291 0.880797
w 292 1
w 293 0.880797
w 294 0.880797
w 295 1
w 296 0.880797
w 297 0.880797
w 298 1
w 299 0.880797
w 300 0.880797
w 301 1
w 302 0.880797
w 303 0.880797
w 304 1
w 305 0.880797
w 306 0.880797
w 307 1
w 308 0.880797
w 309 1
w 310 0.880797
w 311 0.880797
w 312 1
w 313 0.880797
w 314 0.880797
w 315 1
w 316 0.880797
w 317 0.880797
w 318 1
w 319 0.880797
w 320 0.880797
w 321 1
w 322 0.880797
w 323 0.880797
w 324 1
w 325 0.880797
w 326 0.880797
w 327 1
w 328 0.880797
w 329 0.880797
w 330 1
w 331 0.880797
w 332 0.880797
w 333 1
w 334 0.880797
w 335 0.880797
w 336 1
w 337 0.880797
w 338 0.880797
w 339 1
w 340 0.880797
w 341 0.880797
w 342 1
w 343 0.880797
w 344 0.880797
w 345 1
w 346 0.880797
w 347 0.880797
w 348 1
w 349 0.880797
w 350 0.880797
w 351 1
w 352 0.880797
w 353 1
w 354 0.880797
w 355 0.880797
w 356 1
w 357 0.880797
w 358 0.880797
w 359 1
w 360 0.880797
w 361 0.880797
w 362 1
w 363 0.880797
w 364 0.880797
w 365 1
w 366 0.880797
w 367 0.880797
w 368 1
w 369 0.880797
w 370 0.880797
w 371 1
w 372 0.880797
w 373 0.880797
w 374 1
w 375 0.880797
w 376 0.880797
w 377 1
w 378 0.880797
w 379 0.880797
w 380 1
w 381 0.880797
w 382 0.880797
w 383 1
w 384 0.880797
w 385 0.880797
w 386 1
w 387 0.880797
w 388 0.880797
w 389 1
w 390 0.880797
w 391 0.880797
w 392 1
w 393 0.880797
w 394 0.880797
w 395 1
w 396 0.880797
w 397 1
w 398 0.880797
w 399 0.880797
w 400 1
w 401 0.880797
w 402 0.880797
w 403 1
w 404 0.880797
w 405 0.880797
w 406 1
w 407 0.880797
w 408 0.880797
w 409 1
w 410 0.880797
w 411 0.880797
w 412 1
w 413 0.880797
w 414 0.880797
w 415 1
w 416 0.880797
w 417 0.880797
w 418 1
w 419 0.880797
w 420 0.880797
w 421 1
w 422 0.880797
w 423 0.880797
w 424 1
w 425 0.880797
w 426 0.880797
w 427 1
w 428 0.880797
w 429 0.880797
w 430 1
w 431 0.880797
w 432 0.880797
w 433 1
w 434 0.880797
w 435 0.880797
w 436 1
w 437 0.880797
w 438 0.880797
w 439 1
w 440 0.880797
w 441 1
w 442 0.880797
w 443 0.880797
w 444 1
w 445 0.880797
w 446 0.880797
w 447 1
w 448 0.880797
w 449 0.880797
w 450 1
w 451 0.880797
w 452 0.880797
w 453 1
w 454 0.880797
w 455 0.880797
w 456 1
w 457 0.880797
w 458 0.880797
w 459 1
w 460 0.880797
w 461 0.880797
w 462 1
w 463 0.880797
w 464 0.880797
w 465 1
w 466 0.880797
w 467 0.880797
w 468 1
w 469 0.880797
w 470 0.880797
w 471 1
w 472 0.880797
w 473 0.880797
w 474 1
w 475 0.880797
w 476 0.880797
w 477 1
w 478 0.880797
w 479 0.880797
w 480 1
w 481 0.880797
w 482 0.880797
w 483 1
w 484 0.880797
w 485 1
w 486 0.880797
w 487 0.880797
w 488 1
w 489 0.880797
w 490 0.880797
w 491 1
w 492 0.880797
w 493 0.880797
w 494 1
w 495 0.880797
w 496 0.880797
w 497 1
w 498 0.880797
w 499 0.880797
w 500 1
w 501 0.880797
w 502 0.880797
w 503 1
w 504 0.880797
w 505 0.880797
w 506 1
w 507 0.880797
w 508 0.880797
w 509 1
w 510 0.880797
w 511 0.880797
w 512 1
w 513 0.880797
w 514 0.880797
w 515 1
w 516 0.880797
w 517 0.880797
w 518 1
w 519 0.880797
w 520 0.880797
w 521 1
w 522 0.880797
w 523 0.880797
w 524 1
w 525 0.880797
w 526 0.880797
w 527 1
w 528 0.880797
w 529 1
w 530 0.880797
w 531 0.880797
w 532 1
w 533 0.880797
w 534 0.880797
w 535 1
w 536 0.880797
w 537 0.880797
w 538 1
w 539 0.880797
w 540 0.880797
w 541 1
w 542 0.880797
w 543 0.880797
w 544 1
w 545 0.880797
w 546 0.880797
w 547 1
w 548 0.880797
w 549 0.880797
w 550 1
w 551 0.880797
w 552 0.880797
w 553 1
w 554 0.880797
w 555 0.880797
w 556 1
w 557 0.880797
w 558 0.880797
w 559 1
w 560 0.880797
w 561 0.880797
w 562 1
w 563 0.880797
w 564 0.880797
w 565 1
w 566 0.880797
w 567 0.880797
w 568 1
w 569 0.880797
w 570 0.880797
w 571 1
w 572 0.880797
w 573 1
w 574 0.880797
w 575 0.880797
w 576 1
w 577 0.880797
w 578 0.880797
w 579 1
w 580 0.880797
w 581 0.880797
w 582 1
w 583 0.880797
w 584 0.880797
w 585 1
w 586 0.880797
w 587 0.880797
w 588 1
w 589 0.880797
w 590 0.880797
w 591 1
w 592 0.880797
w 593 0.880797
w 594 1
w 595 0.880797
w 596 0.880797
w 597 1
w 598 0.880797
w 599 0.880797
w 600 1
w 601 0.880797
w 602 0.880797
w 603 1
w 604 0.880797
w 605 0.880797
w 606 1
w 607 0.880797
w 608 0.880797
w 609 1
w 610 0.880797
w 611 0.880797
w 612 1
w 613 0.880797
w 614 0.880797
w 615 1
w 616 0.880797
w 617 1
w 618 0.880797
w 619 1
w 620 0.880797
w 621 1
w 622 0.880797
w 623 1
w 624 0.880797
w 625 1
w 626 0.880797
w 627 1
w 628 0.880797
w 629 1
w 630 0.880797
w 631 1
w 632 0.880797
w 633 1
w 634 0.880797
w 635 1
w 636 0.880797
w 637 1
w 638 0.880797
w 639 1
w 640 0.880797
w 641 1
w 642 0.880797
w 643 1
w 644 0.880797
w 645 1
2 1 4 0
2 -1 -4 0
-2 1 -4 0
-2 -1 4 0
3 1 45 0
3 -1 -45 0
-3 1 -45 0
-3 -1 45 0
5 4 7 0
5 -4 -7 0
-5 4 -7 0
-5 -4 7 0
6 4 48 0
6 -4 -48 0
-6 4 -48 0
-6 -4 48 0
8 7 10 0
8 -7 -10 0
-8 7 -10 0
-8 -7 10 0
9 7 51 0
9 -7 -51 0
-9 7 -51 0
-9 -7 51 0
11 10 13 0
11 -10 -13 0
-11 10 -13 0
-11 -10 13 0
12 10 54 0
12 -10 -54 0
-12 10 -54 0
-12 -10 54 0
14 13 16 0
14 -13 -16 0
-14 13 -16 0
-14 -13 16 0
15 13 57 0
15 -13 -57 0
-15 13 -57 0
-15 -13 57 0
17 16 19 0
17 -16 -19 0
-17 16 -19 0
-17 -16 19 0
18 16 60 0
18 -16 -60 0
-18 16 -60 0
-18 -16 60 0
20 19 22 0
20 -19 -22 0
-20 19 -22 0
-20 -19 22 0
21 19 63 0
21 -19 -63 0
-21 19 -63 0
-21 -19 63 0
23 22 25 0
23 -22 -25 0
-23 22 -25 0
-23 -22 25 0
24 22 66 0
24 -22 -66 0
-24 22 -66 0
-24 -22 66 0
26 25 28 0
26 -25 -28 0
-26 25 -28 0
-26 -25 28 0
27 25 69 0
27 -25 -69 0
-27 25 -69 0
-27 -25 69 0
29 28 31 0
29 -28 -31 0
-29 28 -31 0
-29 -28 31 0
30 28 72 0
30 -28 -72 0
-30 28 -72 0
-30 -28 72 0
32 31 34 0
32 -31 -34 0
-32 31 -34 0
-32 -31 34 0
33 31 75 0
33 -31 -75 0
-33 31 -75 0
-33 -31 75 0
35 34 37 0
35 -34 -37 0
-35 34 -37 0
-35 -34 37 0
36 34 78 0
36 -34 -78 0
-36 34 -78 0
-36 -34 78 0
38 37 40 0
38 -37 -40 0
-38 37 -40 0
-38 -37 40 0
39 37 81 0
39 -37 -81 0
-39 37 -81 0
-39 -37 81 0
41 40 43 0
41 -40 -43 0
-41 40 -43 0
-41 -40 43 0
42 40 84 0
42 -40 -84 0
-42 40 -84 0
-42 -40 84 0
44 43 87 0
44 -43 -87 0
-44 43 -87 0
-44 -43 87 0
46 45 48 0
46 -45 -48 0
-46 45 -48 0
-46 -45 48 0
47 45 89 0
47 -45 -89 0
-47 45 -89 0
-47 -45 89 0
49 48 51 0
49 -48 -51 0
-49 48 -51 0
-49 -48 51 0
50 48 92 0
50 -48 -92 0
-50 48 -92 0
-50 -48 92 0
52 51 54 0
52 -51 -54 0
-52 51 -54 0
-52 -51 54 0
53 51 95 0
53 -51 -95 0
-53 51 -95 0
-53 -51 95 0
55 54 57 0
55 -54 -57 0
-55 54 -57 0
-55 -54 57 0
56 54 98 0
56 -54 -98 0
-56 54 -98 0
-56 -54 98 0
58 57 60 0
58 -57 -60 0
-58 57 -60 0
-58 -57 60 0
59 57 101 0
59 -57 -101 0
-59 57 -101 0
-59 -57 101 0
61 60 63 0
61 -60 -63 0
-61 60 -63 0
-61 -60 63 0
62 60 104 0
62 -60 -104 0
-62 60 -104 0
-62 -60 104 0
64 63 66 0
64 -63 -66 0
-64 63 -66 0
-64 -63 66 0
65 63 107 0
65 -63 -107 0
-65 63 -107 0
-65 -63 107 0
67 66 69 0
67 -66 -69 0
-67 66 -69 0
-67 -66 69 0
68 66 110 0
68 -66 -110 0
-68 66 -110 0
-68 -66 110 0
70 69 72 0
70 -69 -72 0
-70 69 -72 0
-70 -69 72 0
71 69 113 0
71 -69 -113 0
-71 69 -113 0
-71 -69 113 0
73 72 75 0
73 -72 -75 0
-73 72 -75 0
-73 -72 75 0
74 72 116 0
74 -72 -116 0
-74 72 -116 0
-74 -72 116 0
76 75 78 0
76 -75 -78 0
-76 75 -78 0
-76 -75 78 0
77 75 119 0
77 -75 -119 0
-77 75 -119 0
-77 -75 119 0
79 78 81 0
79 -78 -81 0
-79 78 -81 0
-79 -78 81 0
80 78 122 0
80 -78 -122 0
-80 78 -122 0
-80 -78 122 0
82 81 84 0
82 -81 -84 0
-82 81 -84 0
-82 -81 84 0
83 81 125 0
83 -81 -125 0
-83 81 -125 0
-83 -81 125 0
85 84 87 0
85 -84 -87 0
-85 84 -87 0
-85 -84 87 0
86 84 128 0
86 -84 -128 0
-86 84 -128 0
-86 -84 128 0
88 87 131 0
88 -87 -131 0
-88 87 -131 0
-88 -87 131 0
90 89 92 0
90 -89 -92 0
-90 89 -92 0
-90 -89 92 0
91 89 133 0
91 -89 -133 0
-91 89 -133 0
-91 -89 133 0
93 92 95 0
93 -92 -95 0
-93 92 -95 0
-93 -92 95 0
94 92 136 0
94 -92 -136 0
-94 92 -136 0
-94 -92 136 0
96 95 98 0
96 -95 -98 0
-96 95 -98 0
-96 -95 98 0
97 95 139 0
97 -95 -139 0
-97 95 -139 0
-97 -95 139 0
99 98 101 0
99 -98 -101 0
-99 98 -101 0
-99 -98 101 0
100 98 142 0
100 -98 -142 0
-100 98 -142 0
-100 -98 142 0
102 101 104 0
102 -101 -104 0
-102 101 -104 0
-102 -101 104 0
103 101 145 0
103 -101 -145 0
-103 101 -145 0
-103 -101 145 0
105 104 107 0
105 -104 -107 0
-105 104 -107 0
-105 -104 107 0
106 104 148 0
106 -104 -148 0
-106 104 -148 0
-106 -104 148 0
108 107 110 0
108 -107 -110 0
-108 107 -110 0
-108 -107 110 0
109 107 151 0
109 -107 -151 0
-109 107 -151 0
-109 -107 151 0
111 110 113 0
111 -110 -113 0
-111 110 -113 0
-111 -110 113 0
112 110 154 0
112 -110 -154 0
-112 110 -154 0
-112 -110 154 0
114 113 116 0
114 -113 -116 0
-114 113 -116 0
-114 -113 116 0
115 113 157 0
115 -113 -157 0
-115 113 -157 0
-115 -113 157 0
117 116 119 0
117 -116 -119 0
-117 116 -119 0
-117 -116 119 0
118 116 160 0
118 -116 -160 0
-118 116 -160 0
-118 -116 160 0
120 119 122 0
120 -119 -122 0
-120 119 -122 0
-120 -119 122 0
121 119 163 0
121 -119 -163 0
-121 119 -163 0
-121 -119 163 0
123 122 125 0
123 -122 -125 0
-123 122 -125 0
-123 -122 125 0
124 122 166 0
124 -122 -166 0
-124 122 -166 0
-124 -122 166 0
126 125 128 0
126 -125 -128 0
-126 125 -128 0
-126 -125 128 0
127 125 169 0
127 -125 -169 0
-127 125 -169 0
-127 -125 169 0
129 128 131 0
129 -128 -131 0
-129 128 -131 0
-129 -128 131 0
130 128 172 0
130 -128 -172 0
-130 128 -172 0
-130 -128 172 0
132 131 175 0
132 -131 -175 0
-132 131 -175 0
-132 -131 175 0
134 133 136 0
134 -133 -136 0
-134 133 -136 0
-134 -133 136 0
135 133 177 0
135 -133 -177 0
-135 133 -177 0
-135 -133 177 0
137 136 139 0
137 -136 -139 0
-137 136 -139 0
-137 -136 139 0
138 136 180 0
138 -136 -180 0
-138 136 -180 0
-138 -136 180 0
140 139 142 0
140 -139 -142 0
-140 139 -142 0
-140 -139 142 0
141 139 183 0
141 -139 -183 0
-141 139 -183 0
-141 -139 183 0
143 142 145 0
143 -142 -145 0
-143 142 -145 0
-143 -142 145 0
144 142 186 0
144 -142 -186 0
-144 142 -186 0
-144 -142 186 0
146 145 148 0
146 -145 -148 0
-146 145 -148 0
-146 -145 148 0
147 145 189 0
147 -145 -189 0
-147 145 -189 0
-147 -145 189 0
149 148 151 0
149 -148 -151 0
-149 148 -151 0
-149 -148 151 0
150 148 192 0
150 -148 -192 0
-150 148 -192 0
-150 -148 192 0
152 151 154 0
152 -151 -154 0
-152 151 -154 0
-152 -151 154 0
153 151 195 0
153 -151 -195 0
-153 151 -195 0
-153 -151 195 0
155 154 157 0
155 -154 -157 0
-155 154 -157 0
-155 -154 157 0
156 154 198 0
156 -154 -198 0
-156 154 -198 0
-156 -154 198 0
158 157 160 0
158 -157 -160 0
-158 157 -160 0
-158 -157 160 0
159 157 201 0
159 -157 -201 0
-159 157 -201 0
-159 -157 201 0
161 160 163 0
161 -160 -163 0
-161 160 -163 0
-161 -160 163 0
162 160 204 0
162 -160 -204 0
-162 160 -204 0
-162 -160 204 0
164 163 166 0
164 -163 -166 0
-164 163 -166 0
-164 -163 166 0
165 163 207 0
165 -163 -207 0
-165 163 -207 0
-165 -163 207 0
167 166 169 0
167 -166 -169 0
-167 166 -169 0
-167 -166 169 0
168 166 210 0
168 -166 -210 0
-168 166 -210 0
-168 -166 210 0
170 169 172 0
170 -169 -172 0
-170 169 -172 0
-170 -169 172 0
171 169 213 0
171 -169 -213 0
-171 169 -213 0
-171 -169 213 0
173 172 175 0
173 -172 -175 0
-173 172 -175 0
-173 -172 175 0
174 172 216 0
174 -172 -216 0
-174 172 -216 0
-174 -172 216 0
176 175 219 0
176 -175 -219 0
-176 175 -219 0
-176 -175 219 0
178 177 180 0
178 -177 -180 0
-178 177 -180 0
-178 -177 180 0
179 177 221 0
179 -177 -221 0
-179 177 -221 0
-179 -177 221 0
181 180 183 0
181 -180 -183 0
-181 180 -183 0
-181 -180 183 0
182 180 224 0
182 -180 -224 0
-182 180 -224 0
-182 -180 224 0
184 183 186 0
184 -183 -186 0
-184 183 -186 0
-184 -183 186 0
185 183 227 0
185 -183 -227 0
-185 183 -227 0
-185 -183 227 0
187 186 189 0
187 -186 -189 0
-187 186 -189 0
-187 -186 189 0
188 186 230 0
188 -186 -230 0
-188 186 -230 0
-188 -186 230 0
190 189 192 0
190 -189 -192 0
-190 189 -192 0
-190 -189 192 0
191 189 233 0
191 -189 -233 0
-191 189 -233 0
-191 -189 233 0
193 192 195 0
193 -192 -195 0
-193 192 -195 0
-193 -192 195 0
194 192 236 0
194 -192 -236 0
-194 192 -236 0
-194 -192 236 0
196 195 198 0
196 -195 -198 0
-196 195 -198 0
-196 -195 198 0
197 195 239 0
197 -195 -239 0
-197 195 -239 0
-197 -195 239 0
199 198 201 0
199 -198 -201 0
-199 198 -201 0
-199 -198 201 0
200 198 242 0
200 -198 -242 0
-200 198 -242 0
-200 -198 242 0
202 201 204 0
202 -201 -204 0
-202 201 -204 0
-202 -201 204 0
203 201 245 0
203 -201 -245 0
-203 201 -245 0
-203 -201 245 0
205 204 207 0
205 -204 -207 0
-205 204 -207 0
-205 -204 207 0
206 204 248 0
206 -204 -248 0
-206 204 -248 0
-206 -204 248 0
208 207 210 0
208 -207 -210 0
-208 207 -210 0
-208 -207 210 0
209 207 251 0
209 -207 -251 0
-209 207 -251 0
-209 -207 251 0
211 210 213 0
211 -210 -213 0
-211 210 -213 0
-211 -210 213 0
212 210 254 0
212 -210 -254 0
-212 210 -254 0
-212 -210 254 0
214 213 216 0
214 -213 -216 0
-214 213 -216 0
-214 -213 216 0
215 213 257 0
215 -213 -257 0
-215 213 -257 0
-215 -213 257 0
217 216 219 0
217 -216 -219 0
-217 216 -219 0
-217 -216 219 0
218 216 260 0
218 -216 -260 0
-218 216 -260 0
-218 -216 260 0
220 219 263 0
220 -219 -263 0
-220 219 -263 0
-220 -219 263 0
222 221 224 0
222 -221 -224 0
-222 221 -224 0
-222 -221 224 0
223 221 265 0
223 -221 -265 0
-223 221 -265 0
-223 -221 265 0
225 224 227 0
225 -224 -227 0
-225 224 -227 0
-225 -224 227 0
226 224 268 0
226 -224 -268 0
-226 224 -268 0
-226 -224 268 0
228 227 230 0
228 -227 -230 0
-228 227 -230 0
-228 -227 230 0
229 227 271 0
229 -227 -271 0
-229 227 -271 0
-229 -227 271 0
231 230 233 0
231 -230 -233 0
-231 230 -233 0
-231 -230 233 0
232 230 274 0
232 -230 -274 0
-232 230 -274 0
-232 -230 274 0
234 233 236 0
234 -233 -236 0
-234 233 -236 0
-234 -233 236 0
235 233 277 0
235 -233 -277 0
-235 233 -277 0
-235 -233 277 0
237 236 239 0
237 -236 -239 0
-237 236 -239 0
-237 -236 239 0
238 236 280 0
238 -236 -280 0
-238 236 -280 0
-238 -236 280 0
240 239 242 0
240 -239 -242 0
-240 239 -242 0
-240 -239 242 0
241 239 283 0
241 -239 -283 0
-241 239 -283 0
-241 -239 283 0
243 242 245 0
243 -242 -245 0
-243 242 -245 0
-243 -242 245 0
244 242 286 0
244 -242 -286 0
-244 242 -286 0
-244 -242 286 0
246 245 248 0
246 -245 -248 0
-246 245 -248 0
-246 -245 248 0
247 245 289 0
247 -245 -289 0
-247 245 -289 0
-247 -245 289 0
249 248 251 0
249 -248 -251 0
-249 248 -251 0
-249 -248 251 0
250 248 292 0
250 -248 -292 0
-250 248 -292 0
-250 -248 292 0
252 251 254 0
252 -251 -254 0
-252 251 -254 0
-252 -251 254 0
253 251 295 0
253 -251 -295 0
-253 251 -295 0
-253 -251 295 0
255 254 257 0
255 -254 -257 0
-255 254 -257 0
-255 -254 257 0
256 254 298 0
256 -254 -298 0
-256 254 -298 0
-256 -254 298 0
258 257 260 0
258 -257 -260 0
-258 257 -260 0
-258 -257 260 0
259 257 301 0
259 -257 -301 0
-259 257 -301 0
-259 -257 301 0
261 260 263 0
261 -260 -263 0
-261 260 -263 0
-261 -260 263 0
262 260 304 0
262 -260 -304 0
-262 260 -304 0
-262 -260 304 0
264 263 307 0
264 -263 -307 0
-264 263 -307 0
-264 -263 307 0
266 265 268 0
266 -265 -268 0
-266 265 -268 0
-266 -265 268 0
267 265 309 0
267 -265 -309 0
-267 265 -309 0
-267 -265 309 0
269 268 271 0
269 -268 -271 0
-269 268 -271 0
-269 -268 271 0
270 268 312 0
270 -268 -312 0
-270 268 -312 0
-270 -268 312 0
272 271 274 0
272 -271 -274 0
-272 271 -274 0
-272 -271 274 0
273 271 315 0
273 -271 -315 0
-273 271 -315 0
-273 -271 315 0
275 274 277 0
275 -274 -277 0
-275 274 -277 0
-275 -274 277 0
276 274 318 0
276 -274 -318 0
-276 274 -318 0
-276 -274 318 0
278 277 280 0
278 -277 -280 0
-278 277 -280 0
-278 -277 280 0
279 277 321 0
279 -277 -321 0
-279 277 -321 0
-279 -277 321 0
281 280 283 0
281 -280 -283 0
-281 280 -283 0
-281 -280 283 0
282 280 324 0
282 -280 -324 0
-282 280 -324 0
-282 -280 324 0
284 283 286 0
284 -283 -286 0
-284 283 -286 0
-284 -283 286 0
285 283 327 0
285 -283 -327 0
-285 283 -327 0
-285 -283 327 0
287 286 289 0
287 -286 -289 0
-287 286 -289 0
-287 -286 289 0
288 286 330 0
288 -286 -330 0
-288 286 -330 0
-288 -286 330 0
290 289 292 0
290 -289 -292 0
-290 289 -292 0
-290 -289 292 0
291 289 333 0
291 -289 -333 0
-291 289 -333 0
-291 -289 333 0
293 292 295 0
293 -292 -295 0
-293 292 -295 0
-293 -292 295 0
294 292 336 0
294 -292 -336 0
-294 292 -336 0
-294 -292 336 0
296 295 298 0
296 -295 -298 0
-296 295 -298 0
-296 -295 298 0
297 295 339 0
297 -295 -339 0
-297 295 -339 0
-297 -295 339 0
299 298 301 0
299 -298 -301 0
-299 298 -301 0
-299 -298 301 0
300 298 342 0
300 -298 -342 0
-300 298 -342 0
-300 -298 342 0
302 301 304 0
302 -301 -304 0
-302 301 -304 0
-302 -301 304 0
303 301 345 0
303 -301 -345 0
-303 301 -345 0
-303 -301 345 0
305 304 307 0
305 -304 -307 0
-305 304 -307 0
-305 -304 307 0
306 304 348 0
306 -304 -348 0
-306 304 -348 0
-306 -304 348 0
308 307 351 0
308 -307 -351 0
-308 307 -351 0
-308 -307 351 0
310 309 312 0
310 -309 -312 0
-310 309 -312 0
-310 -309 312 0
311 309 353 0
311 -309 -353 0
-311 309 -353 0
-311 -309 353 0
313 312 315 0
313 -312 -315 0
-313 312 -315 0
-313 -312 315 0
314 312 356 0
314 -312 -356 0
-314 312 -356 0
-314 -312 356 0
316 315 318 0
316 -315 -318 0
-316 315 -318 0
-316 -315 318 0
317 315 359 0
317 -315 -359 0
-317 315 -359 0
-317 -315 359 0
319 318 321 0
319 -318 -321 0
-319 318 -321 0
-319 -318 321 0
320 318 362 0
320 -318 -362 0
-320 318 -362 0
-320 -318 362 0
322 321 324 0
322 -321 -324 0
-322 321 -324 0
-322 -321 324 0
323 321 365 0
323 -321 -365 0
-323 321 -365 0
-323 -321 365 0
325 324 327 0
325 -324 -327 0
-325 324 -327 0
-325 -324 327 0
326 324 368 0
326 -324 -368 0
-326 324 -368 0
-326 -324 368 0
328 327 330 0
328 -327 -330 0
-328 327 -330 0
-328 -327 330 0
329 327 371 0
329 -327 -371 0
-329 327 -371 0
-329 -327 371 0
331 330 333 0
331 -330 -333 0
-331 330 -333 0
-331 -330 333 0
332 330 374 0
332 -330 -374 0
-332 330 -374 0
-332 -330 374 0
334 333 336 0
334 -333 -336 0
-334 333 -336 0
-334 -333 336 0
335 333 377 0
335 -333 -377 0
-335 333 -377 0
-335 -333 377 0
337 336 339 0
337 -336 -339 0
-337 336 -339 0
-337 -336 339 0
338 336 380 0
338 -336 -380 0
-338 336 -380 0
-338 -336 380 0
340 339 342 0
340 -339 -342 0
-340 339 -342 0
-340 -339 342 0
341 339 383 0
341 -339 -383 0
-341 339 -383 0
-341 -339 383 0
343 342 345 0
343 -342 -345 0
-343 342 -345 0
-343 -342 345 0
344 342 386 0
344 -342 -386 0
-344 342 -386 0
-344 -342 386 0
346 345 348 0
346 -345 -348 0
-346 345 -348 0
-346 -345 348 0
347 345 389 0
347 -345 -389 0
-347 345 -389 0
-347 -345 389 0
349 348 351 0
349 -348 -351 0
-349 348 -351 0
-349 -348 351 0
350 348 392 0
350 -348 -392 0
-350 348 -392 0
-350 -348 392 0
352 351 395 0
352 -351 -395 0
-352 351 -395 0
-352 -351 395 0
354 353 356 0
354 -353 -356 0
-354 353 -356 0
-354 -353 356 0
355 353 397 0
355 -353 -397 0
-355 353 -397 0
-355 -353 397 0
357 356 359 0
357 -356 -359 0
-357 356 -359 0
-357 -356 359 0
358 356 400 0
358 -356 -400 0
-358 356 -400 0
-358 -356 400 0
360 359 362 0
360 -359 -362 0
-360 359 -362 0
-360 -359 362 0
361 359 403 0
361 -359 -403 0
-361 359 -403 0
-361 -359 403 0
363 362 365 0
363 -362 -365 0
-363 362 -365 0
-363 -362 365 0
364 362 406 0
364 -362 -406 0
-364 362 -406 0
-364 -362 406 0
366 365 368 0
366 -365 -368 0
-366 365 -368 0
-366 -365 368 0
367 365 409 0
367 -365 -409 0
-367 365 -409 0
-367 -365 409 0
369 368 371 0
369 -368 -371 0
-369 368 -371 0
-369 -368 371 0
370 368 412 0
370 -368 -412 0
-370 368 -412 0
-370 -368 412 0
372 371 374 0
372 -371 -374 0
-372 371 -374 0
-372 -371 374 0
373 371 415 0
373 -371 -415 0
-373 371 -415 0
-373 -371 415 0
375 374 377 0
375 -374 -377 0
-375 374 -377 0
-375 -374 377 0
376 374 418 0
376 -374 -418 0
-376 374 -418 0
-376 -374 418 0
378 377 380 0
378 -377 -380 0
-378 377 -380 0
-378 -377 380 0
379 377 421 0
379 -377 -421 0
-379 377 -421 0
-379 -377 421 0
381 380 383 0
381 -380 -383 0
-381 380 -383 0
-381 -380 383 0
382 380 424 0
382 -380 -424 0
-382 380 -424 0
-382 -380 424 0
384 383 386 0
384 -383 -386 0
-384 383 -386 0
-384 -383 386 0
385 383 427 0
385 -383 -427 0
-385 383 -427 0
-385 -383 427 0
387 386 389 0
387 -386 -389 0
-387 386 -389 0
-387 -386 389 0
388 386 430 0
388 -386 -430 0
-388 386 -430 0
-388 -386 430 0
390 389 392 0
390 -389 -392 0
-390 389 -392 0
-390 -389 392 0
391 389 433 0
391 -389 -433 0
-391 389 -433 0
-391 -389 433 0
393 392 395 0
393 -392 -395 0
-393 392 -395 0
-393 -392 395 0
394 392 436 0
394 -392 -436 0
-394 392 -436 0
-394 -392 436 0
396 395 439 0
396 -395 -439 0
-396 395 -439 0
-396 -395 439 0
398 397 400 0
398 -397 -400 0
-398 397 -400 0
-398 -397 400 0
399 397 441 0
399 -397 -441 0
-399 397 -441 0
-399 -397 441 0
401 400 403 0
401 -400 -403 0
-401 400 -403 0
-401 -400 403 0
402 400 444 0
402 -400 -444 0
-402 400 -444 0
-402 -400 444 0
404 403 406 0
404 -403 -406 0
-404 403 -406 0
-404 -403 406 0
405 403 447 0
405 -403 -447 0
-405 403 -447 0
-405 -403 447 0
407 406 409 0
407 -406 -409 0
-407 406 -409 0
-407 -406 409 0
408 406 450 0
408 -406 -450 0
-408 406 -450 0
-408 -406 450 0
410 409 412 0
410 -409 -412 0
-410 409 -412 0
-410 -409 412 0
411 409 453 0
411 -409 -453 0
-411 409 -453 0
-411 -409 453 0
413 412 415 0
413 -412 -415 0
-413 412 -415 0
-413 -412 415 0
414 412 456 0
414 -412 -456 0
-414 412 -456 0
-414 -412 456 0
416 415 418 0
416 -415 -418 0
-416 415 -418 0
-416 -415 418 0
417 415 459 0
417 -415 -459 0
-417 415 -459 0
-417 -415 459 0
419 418 421 0
419 -418 -421 0
-419 418 -421 0
-419 -418 421 0
420 418 462 0
420 -418 -462 0
-420 418 -462 0
-420 -418 462 0
422 421 424 0
422 -421 -424 0
-422 421 -424 0
-422 -421 424 0
423 421 465 0
423 -421 -465 0
-423 421 -465 0
-423 -421 465 0
425 424 427 0
425 -424 -427 0
-425 424 -427 0
-425 -424 427 0
426 424 468 0
426 -424 -468 0
-426 424 -468 0
-426 -424 468 0
428 427 430 0
428 -427 -430 0
-428 427 -430 0
-428 -427 430 0
429 427 471 0
429 -427 -471 0
-429 427 -471 0
-429 -427 471 0
431 430 433 0
431 -430 -433 0
-431 430 -433 0
-431 -430 433 0
432 430 474 0
432 -430 -474 0
-432 430 -474 0
-432 -430 474 0
434 433 436 0
434 -433 -436 0
-434 433 -436 0
-434 -433 436 0
435 433 477 0
435 -433 -477 0
-435 433 -477 0
-435 -433 477 0
437 436 439 0
437 -436 -439 0
-437 436 -439 0
-437 -436 439 0
438 436 480 0
438 -436 -480 0
-438 436 -480 0
-438 -436 480 0
440 439 483 0
440 -439 -483 0
-440 439 -483 0
-440 -439 483 0
442 441 444 0
442 -441 -444 0
-442 441 -444 0
-442 -441 444 0
443 441 485 0
443 -441 -485 0
-443 441 -485 0
-443 -441 485 0
445 444 447 0
445 -444 -447 0
-445 444 -447 0
-445 -444 447 0
446 444 488 0
446 -444 -488 0
-446 444 -488 0
-446 -444 488 0
448 447 450 0
448 -447 -450 0
-448 447 -450 0
-448 -447 450 0
449 447 491 0
449 -447 -491 0
-449 447 -491 0
-449 -447 491 0
451 450 453 0
451 -450 -453 0
-451 450 -453 0
-451 -450 453 0
452 450 494 0
452 -450 -494 0
-452 450 -494 0
-452 -450 494 0
454 453 456 0
454 -453 -456 0
-454 453 -456 0
-454 -453 456 0
455 453 497 0
455 -453 -497 0
-455 453 -497 0
-455 -453 497 0
457 456 459 0
457 -456 -459 0
-457 456 -459 0
-457 -456 459 0
458 456 500 0
458 -456 -500 0
-458 456 -500 0
-458 -456 500 0
460 459 462 0
460 -459 -462 0
-460 459 -462 0
-460 -459 462 0
461 459 503 0
461 -459 -503 0
-461 459 -503 0
-461 -459 503 0
463 462 465 0
463 -462 -465 0
-463 462 -465 0
-463 -462 465 0
464 462 506 0
464 -462 -506 0
-464 462 -506 0
-464 -462 506 0
466 465 468 0
466 -465 -468 0
-466 465 -468 0
-466 -465 468 0
467 465 509 0
467 -465 -509 0
-467 465 -509 0
-467 -465 509 0
469 468 471 0
469 -468 -471 0
-469 468 -471 0
-469 -468 471 0
470 468 512 0
470 -468 -512 0
-470 468 -512 0
-470 -468 512 0
472 471 474 0
472 -471 -474 0
-472 471 -474 0
-472 -471 474 0
473 471 515 0
473 -471 -515 0
-473 471 -515 0
-473 -471 515 0
475 474 477 0
475 -474 -477 0
-475 474 -477 0
-475 -474 477 0
476 474 518 0
476 -474 -518 0
-476 474 -518 0
-476 -474 518 0
478 477 480 0
478 -477 -480 0
-478 477 -480 0
-478 -477 480 0
479 477 521 0
479 -477 -521 0
-479 477 -521 0
-479 -477 521 0
481 480 483 0
481 -480 -483 0
-481 480 -483 0
-481 -480 483 0
482 480 524 0
482 -480 -524 0
-482 480 -524 0
-482 -480 524 0
484 483 527 0
484 -483 -527 0
-484 483 -527 0
-484 -483 527 0
486 485 488 0
486 -485 -488 0
-486 485 -488 0
-486 -485 488 0
487 485 529 0
487 -485 -529 0
-487 485 -529 0
-487 -485 529 0
489 488 491 0
489 -488 -491 0
-489 488 -491 0
-489 -488 491 0
490 488 532 0
490 -488 -532 0
-490 488 -532 0
-490 -488 532 0
492 491 494 0
492 -491 -494 0
-492 491 -494 0
-492 -491 494 0
493 491 535 0
493 -491 -535 0
-493 491 -535 0
-493 -491 535 0
495 494 497 0
495 -494 -497 0
-495 494 -497 0
-495 -494 497 0
496 494 538 0
496 -494 -538 0
-496 494 -538 0
-496 -494 538 0
498 497 500 0
498 -497 -500 0
-498 497 -500 0
-498 -497 500 0
499 497 541 0
499 -497 -541 0
-499 497 -541 0
-499 -497 541 0
501 500 503 0
501 -500 -503 0
-501 500 -503 0
-501 -500 503 0
502 500 544 0
502 -500 -544 0
-502 500 -544 0
-502 -500 544 0
504 503 506 0
504 -503 -506 0
-504 503 -506 0
-504 -503 506 0
505 503 547 0
505 -503 -547 0
-505 503 -547 0
-505 -503 547 0
507 506 509 0
507 -506 -509 0
-507 506 -509 0
-507 -506 509 0
508 506 550 0
508 -506 -550 0
-508 506 -550 0
-508 -506 550 0
510 509 512 0
510 -509 -512 0
-510 509 -512 0
-510 -509 512 0
511 509 553 0
511 -509 -553 0
-511 509 -553 0
-511 -509 553 0
513 512 515 0
513 -512 -515 0
-513 512 -515 0
-513 -512 515 0
514 512 556 0
514 -512 -556 0
-514 512 -556 0
-514 -512 556 0
516 515 518 0
516 -515 -518 0
-516 515 -518 0
-516 -515 518 0
517 515 559 0
517 -515 -559 0
-517 515 -559 0
-517 -515 559 0
519 518 521 0
519 -518 -521 0
-519 518 -521 0
-519 -518 521 0
520 518 562 0
520 -518 -562 0
-520 518 -562 0
-520 -518 562 0
522 521 524 0
522 -521 -524 0
-522 521 -524 0
-522 -521 524 0
523 521 565 0
523 -521 -565 0
-523 521 -565 0
-523 -521 565 0
525 524 527 0
525 -524 -527 0
-525 524 -527 0
-525 -524 527 0
526 524 568 0
526 -524 -568 0
-526 524 -568 0
-526 -524 568 0
528 527 571 0
528 -527 -571 0
-528 527 -571 0
-528 -527 571 0
530 529 532 0
530 -529 -532 0
-530 529 -532 0
-530 -529 532 0
531 529 573 0
531 -529 -573 0
-531 529 -573 0
-531 -529 573 0
533 532 535 0
533 -532 -535 0
-533 532 -535 0
-533 -532 535 0
534 532 576 0
534 -532 -576 0
-534 532 -576 0
-534 -532 576 0
536 535 538 0
536 -535 -538 0
-536 535 -538 0
-536 -535 538 0
537 535 579 0
537 -535 -579 0
-537 535 -579 0
-537 -535 579 0
539 538 541 0
539 -538 -541 0
-539 538 -541 0
-539 -538 541 0
540 538 582 0
540 -538 -582 0
-540 538 -582 0
-540 -538 582 0
542 541 544 0
542 -541 -544 0
-542 541 -544 0
-542 -541 544 0
543 541 585 0
543 -541 -585 0
-543 541 -585 0
-543 -541 585 0
545 544 547 0
545 -544 -547 0
-545 544 -547 0
-545 -544 547 0
546 544 588 0
546 -544 -588 0
-546 544 -588 0
-546 -544 588 0
548 547 550 0
548 -547 -550 0
-548 547 -550 0
-548 -547 550 0
549 547 591 0
549 -547 -591 0
-549 547 -591 0
-549 -547 591 0
551 550 553 0
551 -550 -553 0
-551 550 -553 0
-551 -550 553 0
552 550 594 0
552 -550 -594 0
-552 550 -594 0
-552 -550 594 0
554 553 556 0
554 -553 -556 0
-554 553 -556 0
-554 -553 556 0
555 553 597 0
555 -553 -597 0
-555 553 -597 0
-555 -553 597 0
557 556 559 0
557 -556 -559 0
-557 556 -559 0
-557 -556 559 0
558 556 600 0
558 -556 -600 0
-558 556 -600 0
-558 -556 600 0
560 559 562 0
560 -559 -562 0
-560 559 -562 0
-560 -559 562 0
561 559 603 0
561 -559 -603 0
-561 559 -603 0
-561 -559 603 0
563 562 565 0
563 -562 -565 0
-563 562 -565 0
-563 -562 565 0
564 562 606 0
564 -562 -606 0
-564 562 -606 0
-564 -562 606 0
566 565 568 0
566 -565 -568 0
-566 565 -568 0
-566 -565 568 0
567 565 609 0
567 -565 -609 0
-567 565 -609 0
-567 -565 609 0
569 568 571 0
569 -568 -571 0
-569 568 -571 0
-569 -568 571 0
570 568 612 0
570 -568 -612 0
-570 568 -612 0
-570 -568 612 0
572 571 615 0
572 -571 -615 0
-572 571 -615 0
-572 -571 615 0
574 573 576 0
574 -573 -576 0
-574 573 -576 0
-574 -573 576 0
575 573 617 0
575 -573 -617 0
-575 573 -617 0
-575 -573 617 0
577 576 579 0
577 -576 -579 0
-577 576 -579 0
-577 -576 579 0
578 576 619 0
578 -576 -619 0
-578 576 -619 0
-578 -576 619 0
580 579 582 0
580 -579 -582 0
-580 579 -582 0
-580 -579 582 0
581 579 621 0
581 -579 -621 0
-581 579 -621 0
-581 -579 621 0
583 582 585 0
583 -582 -585 0
-583 582 -585 0
-583 -582 585 0
584 582 623 0
584 -582 -623 0
-584 582 -623 0
-584 -582 623 0
586 585 588 0
586 -585 -588 0
-586 585 -588 0
-586 -585 588 0
587 585 625 0
587 -585 -625 0
-587 585 -625 0
-587 -585 625 0
589 588 591 0
589 -588 -591 0
-589 588 -591 0
-589 -588 591 0
590 588 627 0
590 -588 -627 0
-590 588 -627 0
-590 -588 627 0
592 591 594 0
592 -591 -594 0
-592 591 -594 0
-592 -591 594 0
593 591 629 0
593 -591 -629 0
-593 591 -629 0
-593 -591 629 0
595 594 597 0
595 -594 -597 0
-595 594 -597 0
-595 -594 597 0
596 594 631 0
596 -594 -631 0
-596 594 -631 0
-596 -594 631 0
598 597 600 0
598 -597 -600 0
-598 597 -600 0
-598 -597 600 0
599 597 633 0
599 -597 -633 0
-599 597 -633 0
-599 -597 633 0
601 600 603 0
601 -600 -603 0
-601 600 -603 0
-601 -600 603 0
602 600 635 0
602 -600 -635 0
-602 600 -635 0
-602 -600 635 0
604 603 606 0
604 -603 -606 0
-604 603 -606 0
-604 -603 606 0
605 603 637 0
605 -603 -637 0
-605 603 -637 0
-605 -603 637 0
607 606 609 0
607 -606 -609 0
-607 606 -609 0
-607 -606 609 0
608 606 639 0
608 -606 -639 0
-608 606 -639 0
-608 -606 639 0
610 609 612 0
610 -609 -612 0
-610 609 -612 0
-610 -609 612 0
611 609 641 0
611 -609 -641 0
-611 609 -641 0
-611 -609 641 0
613 612 615 0
613 -612 -615 0
-613 612 -615 0
-613 -612 615 0
614 612 643 0
614 -612 -643 0
-614 612 -643 0
-614 -612 643 0
616 615 645 0
616 -615 -645 0
-616 615 -645 0
-616 -615 645 0
618 617 619 0
618 -617 -619 0
-618 617 -619 0
-618 -617 619 0
620 619 621 0
620 -619 -621 0
-620 619 -621 0
-620 -619 621 0
622 621 623 0
622 -621 -623 0
-622 621 -623 0
-622 -621 623 0
624 623 625 0
624 -623 -625 0
-624 623 -625 0
-624 -623 625 0
626 625 627 0
626 -625 -627 0
-626 625 -627 0
-626 -625 627 0
628 627 629 0
628 -627 -629 0
-628 627 -629 0
-628 -627 629 0
630 629 631 0
630 -629 -631 0
-630 629 -631 0
-630 -629 631 0
632 631 633 0
632 -631 -633 0
-632 631 -633 0
-632 -631 633 0
634 633 635 0
634 -633 -635 0
-634 633 -635 0
-634 -633 635 0
636 635 637 0
636 -635 -637 0
-636 635 -637 0
-636 -635 637 0
638 637 639 0
638 -637 -639 0
-638 637 -639 0
-638 -637 639 0
640 639 641 0
640 -639 -641 0
-640 639 -641 0
-640 -639 641 0
642 641 643 0
642 -641 -643 0
-642 641 -643 0
-642 -641 643 0
644 643 645 0
644 -643 -645 0
-644 643 -645 0
-644 -643 645 0
